(declare-fun temp809_1 () (_ BitVec 64))
(declare-fun temp809_2 () (_ BitVec 64))
(declare-fun temp809_3 () (_ BitVec 64))
(declare-fun ARGNAME_y_NAMEEND_DIMSIZE () (Array (_ BitVec 64) (_ BitVec 64)))
(declare-fun temp809_4 () (_ BitVec 64))
(declare-fun temp809_5 () (_ BitVec 64))
(declare-fun temp809_6 () (_ BitVec 64))
(declare-fun temp809_7 () (_ BitVec 64))
(declare-fun temp809_8 () (_ BitVec 64))
(declare-fun temp809_9 () (_ BitVec 64))
(declare-fun temp809_10 () (_ BitVec 64))
(declare-fun temp809_11 () (_ BitVec 64))
(declare-fun temp809_12 () (_ BitVec 64))
(declare-fun temp809_13 () (_ BitVec 64))
(declare-fun temp809_14 () (_ BitVec 64))
(declare-fun temp809_15 () (_ BitVec 64))
(declare-fun temp809_16 () (_ BitVec 64))
(declare-fun temp809_17 () (_ BitVec 64))
(declare-fun temp809_18 () (_ BitVec 64))
(declare-fun temp809_19 () (_ BitVec 64))
(declare-fun temp809_20 () (_ BitVec 64))
(declare-fun var66228 () (_ BitVec 64))
(declare-fun ARGNAME_y_NAMEEND_DIM () (_ BitVec 64))
(declare-fun temp809_21 () (_ BitVec 64))
(declare-fun var66232 () (_ BitVec 64))
(declare-fun temp809_22 () (_ BitVec 64))
(declare-fun temp809_23 () (_ BitVec 64))
(declare-fun var66235 () (_ BitVec 64))
(declare-fun k!0 () (_ BitVec 64))
(declare-fun k!1 () Bool)
(declare-fun temp809_24 () (_ BitVec 64))
(declare-fun ARGNAME_x_NAMEEND_DIM () (_ BitVec 64))
(declare-fun var66276 () (_ BitVec 64))
(declare-fun temp809_25 () (_ BitVec 64))
(declare-fun temp809_26 () (_ BitVec 64))
(declare-fun var65762 () (_ BitVec 64))
(declare-fun temp809_27 () (_ BitVec 64))
(declare-fun temp809_28 () (_ BitVec 64))
(declare-fun ARGNAME_x_NAMEEND_DIMSIZE () (Array (_ BitVec 64) (_ BitVec 64)))
(declare-fun temp809_29 () (_ BitVec 64))
(declare-fun temp809_30 () (_ BitVec 64))
(declare-fun temp809_31 () (_ BitVec 64))
(declare-fun temp809_32 () (_ BitVec 64))
(declare-fun temp809_33 () (_ BitVec 64))
(declare-fun temp809_34 () (_ BitVec 64))
(declare-fun temp809_35 () (_ BitVec 64))
(declare-fun temp809_36 () (_ BitVec 64))
(declare-fun temp809_37 () (_ BitVec 64))
(declare-fun temp809_38 () (_ BitVec 64))
(declare-fun temp809_39 () (_ BitVec 64))
(declare-fun temp809_40 () (_ BitVec 64))
(declare-fun temp809_41 () (_ BitVec 64))
(declare-fun temp809_42 () (_ BitVec 64))
(declare-fun temp809_43 () (_ BitVec 64))
(declare-fun temp809_44 () (_ BitVec 64))
(declare-fun temp809_45 () (_ BitVec 64))
(declare-fun temp809_46 () (_ BitVec 64))
(declare-fun temp809_47 () (_ BitVec 64))
(declare-fun var66279 () (_ BitVec 64))
(declare-fun temp809_48 () (_ BitVec 64))
(declare-fun temp809_49 () (_ BitVec 64))
(declare-fun temp809_50 () (_ BitVec 64))
(declare-fun var66280 () (_ BitVec 64))
(declare-fun var66281 () (_ BitVec 64))
(declare-fun temp809_51 () (_ BitVec 64))
(declare-fun temp809_53 () (_ BitVec 64))
(declare-fun temp809_52 () (_ BitVec 64))
(declare-fun temp809_54 () (_ BitVec 64))
(declare-fun var526834 () (_ BitVec 64))
(declare-fun var526836 () (_ BitVec 64))
(declare-fun var592572 () (_ BitVec 64))
(declare-fun var658116 () (_ BitVec 64))
(declare-fun temp809_55 () (_ BitVec 64))
(declare-fun temp809_56 () (_ BitVec 64))
(declare-fun temp809_57 () (_ BitVec 64))
(declare-fun temp809_58 () (_ BitVec 64))
(declare-fun var66309 () (_ BitVec 64))
(declare-fun temp809_60 () (_ BitVec 64))
(declare-fun temp809_59 () (_ BitVec 64))
(declare-fun temp809_62 () (_ BitVec 64))
(declare-fun temp809_61 () (_ BitVec 64))
(declare-fun temp809_63 () (_ BitVec 64))
(declare-fun var2688294 () (_ BitVec 64))
(declare-fun temp809_65 () (_ BitVec 64))
(declare-fun temp809_64 () (_ BitVec 64))
(declare-fun temp809_66 () (_ BitVec 64))
(declare-fun var3212582 () (_ BitVec 64))
(assert (= temp809_1 #x0000000000000000))
(assert (= temp809_2 temp809_1))
(assert (= temp809_3 (select ARGNAME_y_NAMEEND_DIMSIZE temp809_2)))
(assert (= temp809_4 #x0000000000000001))
(assert (= temp809_5 temp809_4))
(assert (= temp809_6 (select ARGNAME_y_NAMEEND_DIMSIZE temp809_5)))
(assert (= temp809_7 #x0000000000000002))
(assert (= temp809_8 temp809_7))
(assert (= temp809_9 (select ARGNAME_y_NAMEEND_DIMSIZE temp809_8)))
(assert (= temp809_10 #x0000000000000003))
(assert (= temp809_11 temp809_10))
(assert (= temp809_12 (select ARGNAME_y_NAMEEND_DIMSIZE temp809_11)))
(assert (= temp809_13 #x0000000000000004))
(assert (= temp809_14 temp809_13))
(assert (= temp809_15 (select ARGNAME_y_NAMEEND_DIMSIZE temp809_14)))
(assert (= temp809_16 #x0000000000000005))
(assert (= temp809_17 temp809_16))
(assert (= temp809_18 (select ARGNAME_y_NAMEEND_DIMSIZE temp809_17)))
(assert (= temp809_19 #x0000000000000000))
(assert (= temp809_20
   (ite (bvslt var66228 temp809_19)
        (bvadd ARGNAME_y_NAMEEND_DIM var66228)
        var66228)))
(assert (= temp809_21 (select ARGNAME_y_NAMEEND_DIMSIZE temp809_20)))
(assert (= var66232 temp809_21))
(assert (bvslt (ite (bvslt var66228 temp809_19)
            (bvadd ARGNAME_y_NAMEEND_DIM var66228)
            var66228)
       ARGNAME_y_NAMEEND_DIM))
(assert (= temp809_22 #x0000000000000000))
(assert (= var66235 (ite (= var66232 temp809_22) #x0000000000000001 #x0000000000000000)))
(assert (= temp809_23 #x0000000000000000))
(assert (= var66235 temp809_23))
(assert (= temp809_24 #x0000000000000001))
(assert (= var66276
   (ite (= ARGNAME_x_NAMEEND_DIM temp809_24)
        #x0000000000000001
        #x0000000000000000)))
(assert (= temp809_25 #x0000000000000001))
(assert (= var66276 temp809_25))
(assert (= temp809_26 #x0000000000000000))
(assert (= var65762 temp809_26))
(assert (= temp809_27 #x0000000000000000))
(assert (= temp809_28 temp809_27))
(assert (= temp809_29 (select ARGNAME_x_NAMEEND_DIMSIZE temp809_28)))
(assert (= temp809_30 #x0000000000000001))
(assert (= temp809_31 temp809_30))
(assert (= temp809_32 (select ARGNAME_x_NAMEEND_DIMSIZE temp809_31)))
(assert (= temp809_33 #x0000000000000002))
(assert (= temp809_34 temp809_33))
(assert (= temp809_35 (select ARGNAME_x_NAMEEND_DIMSIZE temp809_34)))
(assert (= temp809_36 #x0000000000000003))
(assert (= temp809_37 temp809_36))
(assert (= temp809_38 (select ARGNAME_x_NAMEEND_DIMSIZE temp809_37)))
(assert (= temp809_39 #x0000000000000004))
(assert (= temp809_40 temp809_39))
(assert (= temp809_41 (select ARGNAME_x_NAMEEND_DIMSIZE temp809_40)))
(assert (= temp809_42 #x0000000000000005))
(assert (= temp809_43 temp809_42))
(assert (= temp809_44 (select ARGNAME_x_NAMEEND_DIMSIZE temp809_43)))
(assert (= temp809_45 #x0000000000000000))
(assert (= temp809_46
   (ite (bvslt var65762 temp809_45)
        (bvadd ARGNAME_x_NAMEEND_DIM var65762)
        var65762)))
(assert (= temp809_47 (select ARGNAME_x_NAMEEND_DIMSIZE temp809_46)))
(assert (= var66279 temp809_47))
(assert (bvslt (ite (bvslt var65762 temp809_45)
            (bvadd ARGNAME_x_NAMEEND_DIM var65762)
            var65762)
       ARGNAME_x_NAMEEND_DIM))
(assert (= temp809_48 #x0000000000000000))
(assert (= temp809_49
   (ite (bvslt var66228 temp809_48)
        (bvadd ARGNAME_y_NAMEEND_DIM var66228)
        var66228)))
(assert (= temp809_50 (select ARGNAME_y_NAMEEND_DIMSIZE temp809_49)))
(assert (= var66280 temp809_50))
(assert (bvslt (ite (bvslt var66228 temp809_48)
            (bvadd ARGNAME_y_NAMEEND_DIM var66228)
            var66228)
       ARGNAME_y_NAMEEND_DIM))
(assert (= var66281 (ite (= var66279 var66280) #x0000000000000001 #x0000000000000000)))
(assert (= temp809_51 #x0000000000000001))
(assert (= var66281 temp809_51))
(assert (= temp809_53 #x0000000000000001))
(assert (= temp809_52 temp809_53))
(assert (= temp809_54 #x0000000000000005))
(assert (= var526834 temp809_54))
(assert (= var526836 var526834))
(assert (= var592572 var526836))
(assert (= var658116 var592572))
(assert (= temp809_55 #x0000000000000000))
(assert (= var65762 temp809_55))
(assert (= temp809_56 #x0000000000000000))
(assert (= temp809_57
   (ite (bvslt var65762 temp809_56)
        (bvadd ARGNAME_x_NAMEEND_DIM var65762)
        var65762)))
(assert (= temp809_58 (select ARGNAME_x_NAMEEND_DIMSIZE temp809_57)))
(assert (= var66309 temp809_58))
(assert (bvslt (ite (bvslt var65762 temp809_56)
            (bvadd ARGNAME_x_NAMEEND_DIM var65762)
            var65762)
       ARGNAME_x_NAMEEND_DIM))
(assert (= temp809_60 #x0000000000000000))
(assert (= temp809_59 temp809_60))
(assert (= temp809_62 #xffffffffffffffff))
(assert (= temp809_61 temp809_62))
(assert (= temp809_63 #x0000000000000001))
(assert (= var2688294 temp809_63))
(assert (= temp809_65 #x0000000000000001))
(assert (= temp809_64 temp809_65))
(assert (= temp809_66 #x0000000000000001))
(assert (= var3212582 temp809_66))
(model-add temp809_1 () (_ BitVec 64) #x0000000000000000)
(model-add temp809_2 () (_ BitVec 64) #x0000000000000000)
(model-add temp809_3
           ()
           (_ BitVec 64)
           (select ARGNAME_y_NAMEEND_DIMSIZE #x0000000000000000))
(model-add temp809_4 () (_ BitVec 64) #x0000000000000001)
(model-add temp809_5 () (_ BitVec 64) #x0000000000000001)
(model-add temp809_6
           ()
           (_ BitVec 64)
           (select ARGNAME_y_NAMEEND_DIMSIZE #x0000000000000001))
(model-add temp809_7 () (_ BitVec 64) #x0000000000000002)
(model-add temp809_8 () (_ BitVec 64) #x0000000000000002)
(model-add temp809_9
           ()
           (_ BitVec 64)
           (select ARGNAME_y_NAMEEND_DIMSIZE #x0000000000000002))
(model-add temp809_10 () (_ BitVec 64) #x0000000000000003)
(model-add temp809_11 () (_ BitVec 64) #x0000000000000003)
(model-add temp809_12
           ()
           (_ BitVec 64)
           (select ARGNAME_y_NAMEEND_DIMSIZE #x0000000000000003))
(model-add temp809_13 () (_ BitVec 64) #x0000000000000004)
(model-add temp809_14 () (_ BitVec 64) #x0000000000000004)
(model-add temp809_15
           ()
           (_ BitVec 64)
           (select ARGNAME_y_NAMEEND_DIMSIZE #x0000000000000004))
(model-add temp809_16 () (_ BitVec 64) #x0000000000000005)
(model-add temp809_17 () (_ BitVec 64) #x0000000000000005)
(model-add temp809_18
           ()
           (_ BitVec 64)
           (select ARGNAME_y_NAMEEND_DIMSIZE #x0000000000000005))
(model-add temp809_19 () (_ BitVec 64) #x0000000000000000)
(model-add temp809_20
           ()
           (_ BitVec 64)
           (ite (bvsle #x0000000000000000 var66228)
                var66228
                (bvadd ARGNAME_y_NAMEEND_DIM var66228)))
(model-add temp809_21
           ()
           (_ BitVec 64)
           (select ARGNAME_y_NAMEEND_DIMSIZE
                   (ite (bvsle #x0000000000000000 var66228)
                        var66228
                        (bvadd ARGNAME_y_NAMEEND_DIM var66228))))
(model-add var66232
           ()
           (_ BitVec 64)
           (select ARGNAME_y_NAMEEND_DIMSIZE
                   (ite (bvsle #x0000000000000000 var66228)
                        var66228
                        (bvadd ARGNAME_y_NAMEEND_DIM var66228))))
(model-add temp809_22 () (_ BitVec 64) #x0000000000000000)
(model-add temp809_23 () (_ BitVec 64) #x0000000000000000)
(model-add var66235 () (_ BitVec 64) #x0000000000000000)
(model-del k!0)
(model-add ARGNAME_y_NAMEEND_DIMSIZE
           ()
           (Array (_ BitVec 64) (_ BitVec 64))
           ((as const (Array (_ BitVec 64) (_ BitVec 64))) k!0))
(model-del k!1)
(model-add k!0
           ()
           (_ BitVec 64)
           (ite k!1 #x0000000000000000 (bvnot #x0000000000000000)))





